(set-logic QF_UF)
(declare-fun A0 () Bool)
(declare-fun A1 () Bool)
(declare-fun A2 () Bool)
(declare-fun A3 () Bool)
(declare-fun A4 () Bool)
(declare-fun A5 () Bool)
(declare-fun A6 () Bool)
(declare-fun A7 () Bool)
(declare-fun A8 () Bool)
(declare-fun A9 () Bool)
(declare-fun A10 () Bool)
(declare-fun A11 () Bool)
(declare-fun A12 () Bool)
(declare-fun A13 () Bool)
(declare-fun A14 () Bool)
(declare-fun A15 () Bool)
(declare-fun A16 () Bool)
(declare-fun A17 () Bool)
(declare-fun A18 () Bool)
(declare-fun A20 () Bool)
(declare-fun A21 () Bool)
(declare-fun A22 () Bool)
(declare-fun A23 () Bool)
(declare-fun A24 () Bool)
(assert (let ((.def_0 (not A16))) (let ((.def_1 (not A17))) (let ((.def_2 (and .def_1 .def_0))) (let ((.def_3 (not .def_2))) (let ((.def_4 (not A22))) (let ((.def_5 (not A8))) (let ((.def_6 (or .def_5 .def_4))) (let ((.def_7 (and .def_6 .def_3))) (let ((.def_8 (not A20))) (let ((.def_9 (= A15 .def_8))) (let ((.def_10 (not .def_9))) (let ((.def_11 (not A9))) (let ((.def_12 (or .def_11 A9))) (let ((.def_13 (= .def_12 .def_10))) (let ((.def_14 (not .def_13))) (let ((.def_15 (= .def_14 .def_7))) (let ((.def_16 (not .def_15))) (let ((.def_17 (not A4))) (let ((.def_18 (or .def_17 A18))) (let ((.def_19 (not A10))) (let ((.def_20 (not A15))) (let ((.def_21 (or .def_20 .def_19))) (let ((.def_22 (and .def_21 .def_18))) (let ((.def_23 (not .def_22))) (let ((.def_24 (not A6))) (let ((.def_25 (and .def_0 .def_24))) (let ((.def_26 (not .def_25))) (let ((.def_27 (not A0))) (let ((.def_28 (or A8 .def_27))) (let ((.def_29 (and .def_28 .def_26))) (let ((.def_30 (not .def_29))) (let ((.def_31 (or .def_30 .def_23))) (let ((.def_32 (not .def_31))) (let ((.def_33 (and .def_32 .def_16))) (let ((.def_34 (not .def_33))) (let ((.def_35 (or A3 A17))) (let ((.def_36 (not .def_35))) (let ((.def_37 (or A20 .def_27))) (let ((.def_38 (not .def_37))) (let ((.def_39 (and .def_38 .def_36))) (let ((.def_40 (not .def_39))) (let ((.def_41 (= A22 A5))) (let ((.def_42 (not .def_41))) (let ((.def_43 (not A2))) (let ((.def_44 (or .def_24 .def_43))) (let ((.def_45 (and .def_44 .def_42))) (let ((.def_46 (or .def_45 .def_40))) (let ((.def_47 (or A1 .def_19))) (let ((.def_48 (not A1))) (let ((.def_49 (or A4 .def_48))) (let ((.def_50 (not .def_49))) (let ((.def_51 (and .def_50 .def_47))) (let ((.def_52 (not .def_51))) (let ((.def_53 (and .def_20 .def_43))) (let ((.def_54 (or A14 A4))) (let ((.def_55 (not .def_54))) (let ((.def_56 (and .def_55 .def_53))) (let ((.def_57 (or .def_56 .def_52))) (let ((.def_58 (and .def_57 .def_46))) (let ((.def_59 (and .def_58 .def_34))) (let ((.def_60 (not .def_59))) (let ((.def_61 (or A12 .def_4))) (let ((.def_62 (or .def_43 .def_11))) (let ((.def_63 (or .def_62 .def_61))) (let ((.def_64 (not A23))) (let ((.def_65 (and A13 .def_64))) (let ((.def_66 (not .def_65))) (let ((.def_67 (and .def_27 .def_1))) (let ((.def_68 (not .def_67))) (let ((.def_69 (and .def_68 .def_66))) (let ((.def_70 (not .def_69))) (let ((.def_71 (and .def_70 .def_63))) (let ((.def_72 (not .def_71))) (let ((.def_73 (and .def_1 .def_27))) (let ((.def_74 (not .def_73))) (let ((.def_75 (and A4 A7))) (let ((.def_76 (not .def_75))) (let ((.def_77 (or .def_76 .def_74))) (let ((.def_78 (and .def_0 .def_0))) (let ((.def_79 (not A21))) (let ((.def_80 (and .def_79 .def_24))) (let ((.def_81 (and .def_80 .def_78))) (let ((.def_82 (not .def_81))) (let ((.def_83 (and .def_82 .def_77))) (let ((.def_84 (and .def_83 .def_72))) (let ((.def_85 (not A11))) (let ((.def_86 (or A2 .def_85))) (let ((.def_87 (not A18))) (let ((.def_88 (not A14))) (let ((.def_89 (= .def_88 .def_87))) (let ((.def_90 (not .def_89))) (let ((.def_91 (and .def_90 .def_86))) (let ((.def_92 (or A4 A24))) (let ((.def_93 (not .def_92))) (let ((.def_94 (or A13 .def_5))) (let ((.def_95 (not .def_94))) (let ((.def_96 (and .def_95 .def_93))) (let ((.def_97 (not .def_96))) (let ((.def_98 (or .def_97 .def_91))) (let ((.def_99 (or A8 .def_19))) (let ((.def_100 (not A24))) (let ((.def_101 (and .def_5 .def_100))) (let ((.def_102 (and .def_101 .def_99))) (let ((.def_103 (not A3))) (let ((.def_104 (or .def_79 .def_103))) (let ((.def_105 (not .def_104))) (let ((.def_106 (= .def_1 A8))) (let ((.def_107 (or .def_106 .def_105))) (let ((.def_108 (and .def_107 .def_102))) (let ((.def_109 (not .def_108))) (let ((.def_110 (or .def_109 .def_98))) (let ((.def_111 (and .def_110 .def_84))) (let ((.def_112 (not .def_111))) (let ((.def_113 (or .def_112 .def_60))) (let ((.def_114 (not .def_113))) .def_114))))))))))))))))))))))))))))))))))))))))))))))))))))))))))))))))))))))))))))))))))))))))))))))))))))))))))))))))))))
(check-sat)
